CMD:
./solvers/bin/cadical --plain --no-reduce -t 1600 ./data/cnfs//visarbiter/visarbiter.52.cnf

c --- [ banner ] -------------------------------------------------------------
c 
c CaDiCaL SAT Solver
c Copyright (c) 2016-2024
c A. Biere, M. Fleury, N. Froleyks, K. Fazekas, F. Pollitt, T. Faller
c JKU Linz, University of Freiburg, TU Wien
c 
c Version 2.1.3 5296d3d2a9bf48c154ab2acb5e44625776d821bf
c g++ (Gentoo 12.3.1_p20230526 p2) 12.3.1 20230526 -Wall -Wextra -O3 -DNDEBUG
c Sat Aug 9 07:26:21 PDT 2025 Linux cedar2.int.cedar.computecanada.ca 5.14.0-362.24.2.el9_3.x86_64 x86_64
c 
c --- [ limit ] --------------------------------------------------------------
c 
c setting time limit to 1600 seconds real time (due to '-t 1600')
c 
c --- [ parsing input ] ------------------------------------------------------
c 
c reading DIMACS file from './data/cnfs//visarbiter/visarbiter.52.cnf'
c opening file to read './data/cnfs//visarbiter/visarbiter.52.cnf'
c found 'p cnf 23502 69824' header
c parsed 69824 clauses in 0.01 seconds process time
c 
c --- [ options ] ------------------------------------------------------------
c 
c   --compact=false                (different from default 'true')
c   --decompose=false              (different from default 'true')
c   --deduplicate=false            (different from default 'true')
c   --elim=false                   (different from default 'true')
c   --probe=false                  (different from default 'true')
c   --reduce=false                 (different from default 'true')
c   --subsume=false                (different from default 'true')
c   --ternary=false                (different from default 'true')
c   --transred=false               (different from default 'true')
c   --vivify=false                 (different from default 'true')
c 
c --- [ solving ] ------------------------------------------------------------
c 
c time measured in process time since initialization
c 
c  seconds  reductions  redundant  irredundant
c         MB    restarts       trail      variables
c          level   conflicts       glue        remaining
c 
c *  0.01 14  0 0   0    0    0  0% 0 68273 22352 95%
c {  0.01 15  0 0   0    0    0  0% 0 68273 22352 95%
c }  0.03 15 122 0  20 1000  882 39% 2 68273 22352 95%
c [  0.03 15  0 0  20 1000  882  0% 0 68273 22352 95%
c O  0.03 15 145 0  20 1002  884 54% 2 68273 22352 95%
c i  0.09 16 144 0  21 2783 2543 65% 4 68273 22342 95%
c i  0.09 16 145 0  21 2837 2590 64% 4 68273 22339 95%
c i  0.09 16 146 0  21 2970 2708 63% 4 68273 22338 95%
c ]  0.09 16 147 0  21 3000 2737 63% 4 68273 22338 95%
c {  0.09 16 122 0  21 3000 2737 39% 2 68273 22338 95%
c F  0.10 16 122 0  22 3005 2742 39% 2 68273 22338 95%
c #  0.19 16 67 0 541 6006 5539 29% 3 68273 22338 95%
c }  0.23 16 60 0 704 7003 6445 28% 3 68273 22338 95%
c [  0.23 16 147 0 704 7003 6445 63% 4 68273 22338 95%
c I  0.37 17 104 0 706 10007 9210 48% 8 68273 22338 95%
c i  0.40 17 105 0 707 10812 9919 47% 7 68273 22337 95%
c i  0.43 17 96 0 708 11530 10556 45% 7 68273 22336 95%
c ]  0.60 18 76 0 709 15006 13739 44% 8 68273 22336 95%
c {  0.60 18 60 0 709 15006 13739 28% 3 68273 22336 95%
c B  0.60 18 60 0 709 15008 13741 28% 3 68273 22336 95%
c 
c  seconds  reductions     redundant  irredundant
c         MB    restarts          trail      variables
c          level     conflicts        glue        remaining
c 
c i  1.01 19 42 0 1747 20317 18646 27% 4 68273 22335 95%
c W  1.09 19 41 0 1868 21010 19283 26% 4 66479 22335 95%
c i  1.29 19 38 0 2157 23225 21312 26% 4 66479 22334 95%
c F  1.64 20 33 0 2822 28013 25732 25% 4 66479 22334 95%
c i  1.71 20 32 0 2934 28922 26548 25% 4 66479 22333 95%
c i  1.81 21 31 0 3064 30126 27633 26% 4 66479 22332 95%
c i  1.83 21 31 0 3114 30426 27901 26% 4 66479 22331 95%
c }  1.89 21 30 0 3224 31007 28389 25% 4 66479 22331 95%
c [  1.89 21 76 0 3224 31007 28389 44% 8 66479 22331 95%
c i  2.11 21 61 0 3225 34076 30958 40% 8 66479 22329 95%
c i  2.12 21 60 0 3225 34180 31023 40% 7 66479 22318 95%
c i  2.21 21 56 0 3226 35515 32021 38% 8 66479 22198 94%
c i  2.21 21 56 0 3226 35525 32023 38% 8 66479 21267 90%
c ]  2.21 21 56 0 3226 35528 32024 38% 8 66479 21093 90%
c 0  2.21 21 56 0 3226 35528 32024 38% 8 66479 21093 90%
c 
c --- [ result ] -------------------------------------------------------------
c 
s UNSATISFIABLE
c 
c --- [ run-time profiling ] -------------------------------------------------
c 
c process time taken by individual solving procedures
c (percentage relative to process time for solving)
c 
c         2.20  100.00% search
c         1.43   64.87% unstable
c         0.75   34.14% stable
c         0.02    0.95% walk
c         0.01    0.49% parse
c         0.00    0.03% lucky
c         0.00    0.00% simplify
c   =================================
c         2.20   99.49% solve
c 
c last line shows process time for solving
c (percentage relative to total process time)
c 
c --- [ statistics ] ---------------------------------------------------------
c 
c chronological:             13238        37.26 %  of conflicts
c conflicts:                 35528     16149.99    per second
c decisions:                115936     52701.13    per second
c fixed:                      2409        10.25 %  of all variables
c learned:                   34331        96.63 %  per conflict
c learned_lits:             647198       100.00 %  learned literals
c minimized:                     0         0.00 %  learned literals
c shrunken:                  85326        13.18 %  learned literals
c minishrunken:             102191        15.79 %  learned literals
c otfs:                        334         0.94 %  of conflict
c propagations:           29023754        13.19 M  per second
c rephased:                      7      5075.43    interval
c restarts:                   3226        11.01    interval
c stabilizing:                   3        40.87 %  of conflicts
c subsumed:                   2294         2.24 %  of all clauses
c strengthened:                331         0.32 %  of all clauses
c walked:                        1     35528.00    interval
c 
c seconds are measured in process time for solving
c 
c --- [ resources ] ----------------------------------------------------------
c 
c total process time since initialization:         2.21    seconds
c total real time since initialization:            2.22    seconds
c maximum resident set size of process:           30.81    MB
c 
c --- [ shutting down ] ------------------------------------------------------
c 
c exit 20
